language ESSENCE' 1.0
$ minion Nodes: 146
$ minion TotalTime: 0.035464
$ Savile Row TotalTime: 3.24
letting x_SetExplicitVarSize_tuple2_tuple3_SetOccurrence be [[true, false, false, false;int(6..9)], 
[true, false, false, false;int(6..9)], 
[true, false, false, false;int(6..9)], 
[true, false, false, false;int(6..9)], 
[true, false, false, false;int(6..9)], 
[true, false, false, false;int(6..9)], 
[true, false, false, false;int(6..9)], 
[true, false, false, false;int(6..9)], 
[true, false, false, false;int(6..9)], 
[true, false, false, false;int(6..9)], 
[true, false, false, false;int(6..9)], 
[true, false, false, false;int(6..9)], 
[true, false, false, false;int(6..9)], 
[true, false, false, false;int(6..9)], 
[true, false, false, false;int(6..9)], 
[true, false, false, false;int(6..9)], 
[true, false, false, false;int(6..9)], 
[true, false, false, false;int(6..9)], 
[true, false, false, false;int(6..9)], 
[true, false, false, false;int(6..9)], 
[true, false, false, false;int(6..9)], 
[true, false, false, false;int(6..9)], 
[true, false, false, false;int(6..9)], 
[true, false, false, false;int(6..9)], 
[true, false, false, false;int(6..9)], 
[true, false, false, false;int(6..9)], 
[true, false, false, false;int(6..9)], 
[true, false, false, false;int(6..9)], 
[true, false, false, false;int(6..9)], 
[true, false, false, false;int(6..9)], 
[true, false, false, false;int(6..9)], 
[true, false, false, false;int(6..9)], 
[true, false, false, false;int(6..9)], 
[true, false, false, false;int(6..9)], 
[true, false, false, false;int(6..9)], 
[true, false, false, false;int(6..9)], 
[true, false, false, false;int(6..9)], 
[true, false, false, false;int(6..9)], 
[true, false, false, false;int(6..9)], 
[true, false, false, false;int(6..9)], 
[true, false, false, false;int(6..9)], 
[true, false, false, false;int(6..9)], 
[true, false, false, false;int(6..9)], 
[true, false, false, false;int(6..9)], 
[true, false, false, false;int(6..9)], 
[true, false, false, false;int(6..9)], 
[false, true, false, false;int(6..9)], 
[true, false, false, false;int(6..9)];int(1..48)]
letting x_SetExplicitVarSize_tuple2_tuple3_SetExplicit be [[6;int(1..1)], 
[6;int(1..1)], 
[6;int(1..1)], 
[6;int(1..1)], 
[6;int(1..1)], 
[6;int(1..1)], 
[6;int(1..1)], 
[6;int(1..1)], 
[6;int(1..1)], 
[6;int(1..1)], 
[6;int(1..1)], 
[6;int(1..1)], 
[6;int(1..1)], 
[6;int(1..1)], 
[6;int(1..1)], 
[6;int(1..1)], 
[6;int(1..1)], 
[6;int(1..1)], 
[6;int(1..1)], 
[6;int(1..1)], 
[6;int(1..1)], 
[6;int(1..1)], 
[6;int(1..1)], 
[6;int(1..1)], 
[6;int(1..1)], 
[6;int(1..1)], 
[6;int(1..1)], 
[6;int(1..1)], 
[6;int(1..1)], 
[6;int(1..1)], 
[6;int(1..1)], 
[6;int(1..1)], 
[6;int(1..1)], 
[6;int(1..1)], 
[6;int(1..1)], 
[6;int(1..1)], 
[6;int(1..1)], 
[6;int(1..1)], 
[6;int(1..1)], 
[6;int(1..1)], 
[6;int(1..1)], 
[6;int(1..1)], 
[6;int(1..1)], 
[6;int(1..1)], 
[6;int(1..1)], 
[6;int(1..1)], 
[7;int(1..1)], 
[6;int(1..1)];int(1..48)]
letting x_SetExplicitVarSize_tuple2_tuple2 be [4, 4, 4, 4, 4, 4, 4, 4, 4, 4, 4, 4, 4, 4, 4, 4, 4, 4, 4, 4, 4, 4, 4, 4, 4, 4, 4, 4, 4, 4, 4, 4, 4, 4, 4, 4, 4, 4, 4, 4, 4, 4, 4, 4, 4, 4, 4, 4;int(1..48)]
letting x_SetExplicitVarSize_tuple1 be [false, false, false, false, false, false, false, false, false, false, false, false, false, false, false, false, false, false, false, false, false, false, false, false, false, false, false, false, false, false, false, false, false, false, false, false, false, false, false, false, false, false, false, false, false, false, true, true;int(1..48)]
letting x_SetExplicitVarSize_tuple2_tuple1_SetOccurrence be [[false, true, true;int(2..4)], 
[false, true, true;int(2..4)], 
[false, true, true;int(2..4)], 
[false, true, true;int(2..4)], 
[false, true, true;int(2..4)], 
[false, true, true;int(2..4)], 
[false, true, true;int(2..4)], 
[false, true, true;int(2..4)], 
[false, true, true;int(2..4)], 
[false, true, true;int(2..4)], 
[false, true, true;int(2..4)], 
[false, true, true;int(2..4)], 
[false, true, true;int(2..4)], 
[false, true, true;int(2..4)], 
[false, true, true;int(2..4)], 
[false, true, true;int(2..4)], 
[false, true, true;int(2..4)], 
[false, true, true;int(2..4)], 
[false, true, true;int(2..4)], 
[false, true, true;int(2..4)], 
[false, true, true;int(2..4)], 
[false, true, true;int(2..4)], 
[false, true, true;int(2..4)], 
[false, true, true;int(2..4)], 
[false, true, true;int(2..4)], 
[false, true, true;int(2..4)], 
[false, true, true;int(2..4)], 
[false, true, true;int(2..4)], 
[false, true, true;int(2..4)], 
[false, true, true;int(2..4)], 
[false, true, true;int(2..4)], 
[false, true, true;int(2..4)], 
[false, true, true;int(2..4)], 
[false, true, true;int(2..4)], 
[false, true, true;int(2..4)], 
[false, true, true;int(2..4)], 
[false, true, true;int(2..4)], 
[false, true, true;int(2..4)], 
[false, true, true;int(2..4)], 
[false, true, true;int(2..4)], 
[false, true, true;int(2..4)], 
[false, true, true;int(2..4)], 
[false, true, true;int(2..4)], 
[false, true, true;int(2..4)], 
[false, true, true;int(2..4)], 
[false, true, true;int(2..4)], 
[false, true, true;int(2..4)], 
[false, true, true;int(2..4)];int(1..48)]
